(declare-const in0 Int)
(declare-const in2 Int)
(declare-const in1 Int)

(assert (and (and (and (and (and (and (and (and (and (and (and (and (and (and (and (and (and (and (and (and (and (and (and (and (and (and (and (and (and (and (and (and (and (and (and (and (and (and (and (and (and (and (and (and (and (and (and (and (and (and (and (and (and (and (and (and (and (and (and (and (and (and (and (and (and (and (and (and (and (and (and (and (and (and (and (and (and (and (and (and (and (and (and (and (and (and (and (and (and (and (and (and (and (and (and (and (and (and (and (and (and (and (and (and (and (and (and (and (and (and (and (and (and (and (and (and (and (and (and (and (and (and (and (and (and (and (and (and (and (and (and (and (and (and (and (and (and (and (and (and (and (and (and (and (and (and (and (and (and (and (and (and (and (and (and (and (and (and (and (and (and (and (and (and (and (and (and (and (and (and (and (and (and (and (and (and (and (and (and (and (and (and (and (and (and (and (and (and (and (and (and (and (and (and (and (and (and (and (and  ( <  0 ( /  ( +  in2 ( +  in1 in0)) 3))  ( <  1 ( /  ( +  in2 ( +  in1 in0)) 3)))  ( <  2 ( /  ( +  in2 ( +  in1 in0)) 3)))  ( <  3 ( /  ( +  in2 ( +  in1 in0)) 3)))  ( <  4 ( /  ( +  in2 ( +  in1 in0)) 3)))  ( <  5 ( /  ( +  in2 ( +  in1 in0)) 3)))  ( <  6 ( /  ( +  in2 ( +  in1 in0)) 3)))  ( <  7 ( /  ( +  in2 ( +  in1 in0)) 3)))  ( <  8 ( /  ( +  in2 ( +  in1 in0)) 3)))  ( <  9 ( /  ( +  in2 ( +  in1 in0)) 3)))  ( <  10 ( /  ( +  in2 ( +  in1 in0)) 3)))  ( <  11 ( /  ( +  in2 ( +  in1 in0)) 3)))  ( <  12 ( /  ( +  in2 ( +  in1 in0)) 3)))  ( <  13 ( /  ( +  in2 ( +  in1 in0)) 3)))  ( <  14 ( /  ( +  in2 ( +  in1 in0)) 3)))  ( <  15 ( /  ( +  in2 ( +  in1 in0)) 3)))  ( <  16 ( /  ( +  in2 ( +  in1 in0)) 3)))  ( <  17 ( /  ( +  in2 ( +  in1 in0)) 3)))  ( <  18 ( /  ( +  in2 ( +  in1 in0)) 3)))  ( <  19 ( /  ( +  in2 ( +  in1 in0)) 3)))  ( <  20 ( /  ( +  in2 ( +  in1 in0)) 3)))  ( <  21 ( /  ( +  in2 ( +  in1 in0)) 3)))  ( <  22 ( /  ( +  in2 ( +  in1 in0)) 3)))  ( <  23 ( /  ( +  in2 ( +  in1 in0)) 3)))  ( <  24 ( /  ( +  in2 ( +  in1 in0)) 3)))  ( <  25 ( /  ( +  in2 ( +  in1 in0)) 3)))  ( <  26 ( /  ( +  in2 ( +  in1 in0)) 3)))  ( <  27 ( /  ( +  in2 ( +  in1 in0)) 3)))  ( <  28 ( /  ( +  in2 ( +  in1 in0)) 3)))  ( <  29 ( /  ( +  in2 ( +  in1 in0)) 3)))  ( <  30 ( /  ( +  in2 ( +  in1 in0)) 3)))  ( <  31 ( /  ( +  in2 ( +  in1 in0)) 3)))  ( <  32 ( /  ( +  in2 ( +  in1 in0)) 3)))  ( <  33 ( /  ( +  in2 ( +  in1 in0)) 3)))  ( <  34 ( /  ( +  in2 ( +  in1 in0)) 3)))  ( <  35 ( /  ( +  in2 ( +  in1 in0)) 3)))  ( <  36 ( /  ( +  in2 ( +  in1 in0)) 3)))  ( <  37 ( /  ( +  in2 ( +  in1 in0)) 3)))  ( <  38 ( /  ( +  in2 ( +  in1 in0)) 3)))  ( <  39 ( /  ( +  in2 ( +  in1 in0)) 3)))  ( <  40 ( /  ( +  in2 ( +  in1 in0)) 3)))  ( <  41 ( /  ( +  in2 ( +  in1 in0)) 3)))  ( <  42 ( /  ( +  in2 ( +  in1 in0)) 3)))  ( <  43 ( /  ( +  in2 ( +  in1 in0)) 3)))  ( <  44 ( /  ( +  in2 ( +  in1 in0)) 3)))  ( <  45 ( /  ( +  in2 ( +  in1 in0)) 3)))  ( <  46 ( /  ( +  in2 ( +  in1 in0)) 3)))  ( <  47 ( /  ( +  in2 ( +  in1 in0)) 3)))  ( <  48 ( /  ( +  in2 ( +  in1 in0)) 3)))  ( <  49 ( /  ( +  in2 ( +  in1 in0)) 3)))  ( <  50 ( /  ( +  in2 ( +  in1 in0)) 3)))  ( <  51 ( /  ( +  in2 ( +  in1 in0)) 3)))  ( <  52 ( /  ( +  in2 ( +  in1 in0)) 3)))  ( <  53 ( /  ( +  in2 ( +  in1 in0)) 3)))  ( <  54 ( /  ( +  in2 ( +  in1 in0)) 3)))  ( <  55 ( /  ( +  in2 ( +  in1 in0)) 3)))  ( <  56 ( /  ( +  in2 ( +  in1 in0)) 3)))  ( <  57 ( /  ( +  in2 ( +  in1 in0)) 3)))  ( <  58 ( /  ( +  in2 ( +  in1 in0)) 3)))  ( <  59 ( /  ( +  in2 ( +  in1 in0)) 3)))  ( <  60 ( /  ( +  in2 ( +  in1 in0)) 3)))  ( <  61 ( /  ( +  in2 ( +  in1 in0)) 3)))  ( <  62 ( /  ( +  in2 ( +  in1 in0)) 3)))  ( <  63 ( /  ( +  in2 ( +  in1 in0)) 3)))  ( <  64 ( /  ( +  in2 ( +  in1 in0)) 3)))  ( <  65 ( /  ( +  in2 ( +  in1 in0)) 3)))  ( <  66 ( /  ( +  in2 ( +  in1 in0)) 3)))  ( <  67 ( /  ( +  in2 ( +  in1 in0)) 3)))  ( <  68 ( /  ( +  in2 ( +  in1 in0)) 3)))  ( <  69 ( /  ( +  in2 ( +  in1 in0)) 3)))  ( <  70 ( /  ( +  in2 ( +  in1 in0)) 3)))  ( <  71 ( /  ( +  in2 ( +  in1 in0)) 3)))  ( <  72 ( /  ( +  in2 ( +  in1 in0)) 3)))  ( <  73 ( /  ( +  in2 ( +  in1 in0)) 3)))  ( <  74 ( /  ( +  in2 ( +  in1 in0)) 3)))  ( <  75 ( /  ( +  in2 ( +  in1 in0)) 3)))  ( <  76 ( /  ( +  in2 ( +  in1 in0)) 3)))  ( <  77 ( /  ( +  in2 ( +  in1 in0)) 3)))  ( <  78 ( /  ( +  in2 ( +  in1 in0)) 3)))  ( <  79 ( /  ( +  in2 ( +  in1 in0)) 3)))  ( <  80 ( /  ( +  in2 ( +  in1 in0)) 3)))  ( <  81 ( /  ( +  in2 ( +  in1 in0)) 3)))  ( <  82 ( /  ( +  in2 ( +  in1 in0)) 3)))  ( <  83 ( /  ( +  in2 ( +  in1 in0)) 3)))  ( <  84 ( /  ( +  in2 ( +  in1 in0)) 3)))  ( <  85 ( /  ( +  in2 ( +  in1 in0)) 3)))  ( <  86 ( /  ( +  in2 ( +  in1 in0)) 3)))  ( <  87 ( /  ( +  in2 ( +  in1 in0)) 3)))  ( <  88 ( /  ( +  in2 ( +  in1 in0)) 3)))  ( <  89 ( /  ( +  in2 ( +  in1 in0)) 3)))  ( <  90 ( /  ( +  in2 ( +  in1 in0)) 3)))  ( <  91 ( /  ( +  in2 ( +  in1 in0)) 3)))  ( <  92 ( /  ( +  in2 ( +  in1 in0)) 3)))  ( <  93 ( /  ( +  in2 ( +  in1 in0)) 3)))  ( <  94 ( /  ( +  in2 ( +  in1 in0)) 3)))  ( <  95 ( /  ( +  in2 ( +  in1 in0)) 3)))  ( <  96 ( /  ( +  in2 ( +  in1 in0)) 3)))  ( <  97 ( /  ( +  in2 ( +  in1 in0)) 3)))  ( <  98 ( /  ( +  in2 ( +  in1 in0)) 3)))  ( <  99 ( /  ( +  in2 ( +  in1 in0)) 3)))  ( <  100 ( /  ( +  in2 ( +  in1 in0)) 3)))  ( <  101 ( /  ( +  in2 ( +  in1 in0)) 3)))  ( <  102 ( /  ( +  in2 ( +  in1 in0)) 3)))  ( <  103 ( /  ( +  in2 ( +  in1 in0)) 3)))  ( <  104 ( /  ( +  in2 ( +  in1 in0)) 3)))  ( <  105 ( /  ( +  in2 ( +  in1 in0)) 3)))  ( <  106 ( /  ( +  in2 ( +  in1 in0)) 3)))  ( <  107 ( /  ( +  in2 ( +  in1 in0)) 3)))  ( <  108 ( /  ( +  in2 ( +  in1 in0)) 3)))  ( <  109 ( /  ( +  in2 ( +  in1 in0)) 3)))  ( <  110 ( /  ( +  in2 ( +  in1 in0)) 3)))  ( <  111 ( /  ( +  in2 ( +  in1 in0)) 3)))  ( <  112 ( /  ( +  in2 ( +  in1 in0)) 3)))  ( <  113 ( /  ( +  in2 ( +  in1 in0)) 3)))  ( <  114 ( /  ( +  in2 ( +  in1 in0)) 3)))  ( <  115 ( /  ( +  in2 ( +  in1 in0)) 3)))  ( <  116 ( /  ( +  in2 ( +  in1 in0)) 3)))  ( <  117 ( /  ( +  in2 ( +  in1 in0)) 3)))  ( <  118 ( /  ( +  in2 ( +  in1 in0)) 3)))  ( <  119 ( /  ( +  in2 ( +  in1 in0)) 3)))  ( <  120 ( /  ( +  in2 ( +  in1 in0)) 3)))  ( <  121 ( /  ( +  in2 ( +  in1 in0)) 3)))  ( <  122 ( /  ( +  in2 ( +  in1 in0)) 3)))  ( <  123 ( /  ( +  in2 ( +  in1 in0)) 3)))  ( <  124 ( /  ( +  in2 ( +  in1 in0)) 3)))  ( <  125 ( /  ( +  in2 ( +  in1 in0)) 3)))  ( <  126 ( /  ( +  in2 ( +  in1 in0)) 3)))  ( <  127 ( /  ( +  in2 ( +  in1 in0)) 3)))  ( <  128 ( /  ( +  in2 ( +  in1 in0)) 3)))  ( <  129 ( /  ( +  in2 ( +  in1 in0)) 3)))  ( <  130 ( /  ( +  in2 ( +  in1 in0)) 3)))  ( <  131 ( /  ( +  in2 ( +  in1 in0)) 3)))  ( <  132 ( /  ( +  in2 ( +  in1 in0)) 3)))  ( <  133 ( /  ( +  in2 ( +  in1 in0)) 3)))  ( <  134 ( /  ( +  in2 ( +  in1 in0)) 3)))  ( <  135 ( /  ( +  in2 ( +  in1 in0)) 3)))  ( <  136 ( /  ( +  in2 ( +  in1 in0)) 3)))  ( <  137 ( /  ( +  in2 ( +  in1 in0)) 3)))  ( <  138 ( /  ( +  in2 ( +  in1 in0)) 3)))  ( <  139 ( /  ( +  in2 ( +  in1 in0)) 3)))  ( <  140 ( /  ( +  in2 ( +  in1 in0)) 3)))  ( <  141 ( /  ( +  in2 ( +  in1 in0)) 3)))  ( <  142 ( /  ( +  in2 ( +  in1 in0)) 3)))  ( <  143 ( /  ( +  in2 ( +  in1 in0)) 3)))  ( <  144 ( /  ( +  in2 ( +  in1 in0)) 3)))  ( <  145 ( /  ( +  in2 ( +  in1 in0)) 3)))  ( <  146 ( /  ( +  in2 ( +  in1 in0)) 3)))  ( <  147 ( /  ( +  in2 ( +  in1 in0)) 3)))  ( <  148 ( /  ( +  in2 ( +  in1 in0)) 3)))  ( <  149 ( /  ( +  in2 ( +  in1 in0)) 3)))  ( <  150 ( /  ( +  in2 ( +  in1 in0)) 3)))  ( <  151 ( /  ( +  in2 ( +  in1 in0)) 3)))  ( <  152 ( /  ( +  in2 ( +  in1 in0)) 3)))  ( <  153 ( /  ( +  in2 ( +  in1 in0)) 3)))  ( <  154 ( /  ( +  in2 ( +  in1 in0)) 3)))  ( <  155 ( /  ( +  in2 ( +  in1 in0)) 3)))  ( <  156 ( /  ( +  in2 ( +  in1 in0)) 3)))  ( <  157 ( /  ( +  in2 ( +  in1 in0)) 3)))  ( <  158 ( /  ( +  in2 ( +  in1 in0)) 3)))  ( <  159 ( /  ( +  in2 ( +  in1 in0)) 3)))  ( <  160 ( /  ( +  in2 ( +  in1 in0)) 3)))  ( <  161 ( /  ( +  in2 ( +  in1 in0)) 3)))  ( <  162 ( /  ( +  in2 ( +  in1 in0)) 3)))  ( <  163 ( /  ( +  in2 ( +  in1 in0)) 3)))  ( <  164 ( /  ( +  in2 ( +  in1 in0)) 3)))  ( <  165 ( /  ( +  in2 ( +  in1 in0)) 3)))  ( <  166 ( /  ( +  in2 ( +  in1 in0)) 3)))  ( <  167 ( /  ( +  in2 ( +  in1 in0)) 3)))  ( <  168 ( /  ( +  in2 ( +  in1 in0)) 3)))  ( <  169 ( /  ( +  in2 ( +  in1 in0)) 3)))  ( <  170 ( /  ( +  in2 ( +  in1 in0)) 3)))  ( <  171 ( /  ( +  in2 ( +  in1 in0)) 3)))  ( <  172 ( /  ( +  in2 ( +  in1 in0)) 3)))  ( <  173 ( /  ( +  in2 ( +  in1 in0)) 3)))  ( <  174 ( /  ( +  in2 ( +  in1 in0)) 3)))  ( <  175 ( /  ( +  in2 ( +  in1 in0)) 3)))  ( <  176 ( /  ( +  in2 ( +  in1 in0)) 3)))  ( <  177 ( /  ( +  in2 ( +  in1 in0)) 3)))  ( <  178 ( /  ( +  in2 ( +  in1 in0)) 3)))  ( <  179 ( /  ( +  in2 ( +  in1 in0)) 3)))  ( <  180 ( /  ( +  in2 ( +  in1 in0)) 3)))  ( <  181 ( /  ( +  in2 ( +  in1 in0)) 3)))  ( <  182 ( /  ( +  in2 ( +  in1 in0)) 3)))  ( <  183 ( /  ( +  in2 ( +  in1 in0)) 3)))  ( <  184 ( /  ( +  in2 ( +  in1 in0)) 3)))  ( <  185 ( /  ( +  in2 ( +  in1 in0)) 3)))  ( <  186 ( /  ( +  in2 ( +  in1 in0)) 3)))  ( <  187 ( /  ( +  in2 ( +  in1 in0)) 3)))  ( <  188 ( /  ( +  in2 ( +  in1 in0)) 3)))  ( <  189 ( /  ( +  in2 ( +  in1 in0)) 3)))  ( <  190 ( /  ( +  in2 ( +  in1 in0)) 3)))  ( <  191 ( /  ( +  in2 ( +  in1 in0)) 3)))  ( <  192 ( /  ( +  in2 ( +  in1 in0)) 3)))  ( <  193 ( /  ( +  in2 ( +  in1 in0)) 3)))  ( <  194 ( /  ( +  in2 ( +  in1 in0)) 3)))  ( <  195 ( /  ( +  in2 ( +  in1 in0)) 3)))  ( <  196 ( /  ( +  in2 ( +  in1 in0)) 3)))  ( <  197 ( /  ( +  in2 ( +  in1 in0)) 3)))  ( <  198 ( /  ( +  in2 ( +  in1 in0)) 3)))  ( <  199 ( /  ( +  in2 ( +  in1 in0)) 3))))

(check-sat)
(get-model)